g3 0 1 0	# problem d4n12R3R7d001d05
 12 9 1 0 3	# vars, constraints, objectives, ranges, eqns
 4 1	# nonlinear constraints, objectives
 0 0	# network constraints: nonlinear, linear
 12 12 12	# nonlinear vars in constraints, objectives, both
 0 0 0 1	# linear network variables; functions; arith, flags
 0 0 0 0 0	# discrete variables: binary, integer, nonlinear (b,c,o)
 90 12	# nonzeros in Jacobian, gradients
 0 0	# max name lengths: constraints, variables
 0 0 0 0 0	# common exprs: b,c,o,c1,o1
b
0 0.22 2.75
0 0.09 2.73
0 0.03 2.27
0 0.27 2.11
0 0.62 2.85
0 0.06 2.65
0 0.95 2.05
0 0.84 2.42
0 0.65 2.98
0 0.75 2.07
0 0.04 2.38
0 0.08 2.76
r
2 116.985
2 108.42
2 414.117
2 83.426
4 34.98
4 30.365
4 14.071
2 51.994
2 86.341
C0
o0
o2
o2
n7.4
v7
v7
o2
o2
n0.8
v9
v10
C1
o54
5
o2
o2
n8.75
v7
v7
o2
o2
n7.97
v9
v10
o16
o2
o2
o2
n7.88
v0
v2
v11
o2
o2
o2
n7.24
v3
v6
v6
o16
o2
o2
o2
n3.73
v6
v11
v11
C2
o54
18
o2
o2
n0.73
v7
v7
o2
o2
n8.33
v9
v10
o2
o2
o2
n9.89
v0
v2
v11
o16
o2
o2
o2
n7.86
v3
v6
v6
o2
o2
o2
n6.28
v6
v11
v11
o2
o2
o2
o2
n1.15
v0
v0
v1
v3
o2
o2
o2
o2
n5.23
v0
v0
v3
v5
o2
o2
o2
o2
n6.66
v0
v2
v6
v7
o2
o2
o2
o2
n8.53
v0
v3
v5
v11
o2
o2
o2
o2
n1.91
v0
v4
v5
v6
o2
o2
o2
o2
n6.62
v1
v5
v6
v9
o2
o2
o2
o2
n5.65
v1
v8
v8
v10
o2
o2
o2
o2
n0.5
v2
v2
v4
v11
o2
o2
o2
o2
n7.37
v4
v7
v7
v11
o2
o2
o2
o2
n9.89
v5
v6
v7
v9
o2
o2
o2
o2
n3.24
v5
v7
v7
v8
o2
o2
o2
o2
n9.2
v5
v9
v9
v9
o16
o2
o2
o2
o2
n2.56
v7
v10
v10
v10
C3
o0
o2
o2
n0.69
v7
v7
o2
o2
n6.27
v9
v10
C4
n0
C5
n0
C6
n0
C7
n0
C8
n0
O0 0
o54
18
o2
o2
n3.04
v7
v7
o2
o2
n6.82
v9
v10
o2
o2
o2
n2.97
v0
v2
v11
o2
o2
o2
n0.14
v3
v6
v6
o2
o2
o2
n9.63
v6
v11
v11
o2
o2
o2
o2
n6.14
v0
v0
v1
v3
o2
o2
o2
o2
n1.11
v0
v0
v3
v5
o2
o2
o2
o2
n2.71
v0
v2
v6
v7
o16
o2
o2
o2
o2
n3.47
v0
v3
v5
v11
o2
o2
o2
o2
n0.13
v0
v4
v5
v6
o2
o2
o2
o2
n1.26
v1
v5
v6
v9
o2
o2
o2
o2
n8.42
v1
v8
v8
v10
o2
o2
o2
o2
n6.53
v2
v2
v4
v11
o2
o2
o2
o2
n0.93
v4
v7
v7
v11
o2
o2
o2
o2
n2.85
v5
v6
v7
v9
o2
o2
o2
o2
n2.91
v5
v7
v7
v8
o2
o2
o2
o2
n5.91
v5
v9
v9
v9
o2
o2
o2
o2
n9.52
v7
v10
v10
v10
k11
8
16
23
31
38
45
53
61
68
76
84
J0 12
0 8.49
1 1.5
2 5.23
3 1.29
4 7.92
5 6.54
6 7.92
7 -2.99
8 8.67
9 7.13
10 8.66
11 5.5
J1 12
0 3.43
1 6.58
2 8.47
3 6.84
4 6.66
5 2.28
6 3.18
7 9.65
8 1.05
9 5.85
10 0.32
11 3.27
J2 12
0 8.16
1 6.08
2 3.64
3 5.41
4 7.52
5 1.63
6 5.4
7 3.54
8 2.61
9 3.23
10 5.94
11 4.33
J3 12
0 2.69
1 8.6
2 6.62
3 4.67
4 3.44
5 4.52
6 4.45
7 4.49
8 0.32
9 3.87
10 3
11 4.12
J4 6
0 1.15
2 2.82
3 7.06
6 1
7 6.97
8 4.83
J5 6
1 8.72
4 1.13
5 2.47
6 0.24
9 9.5
10 -0.82
J6 6
0 8.79
1 0.86
3 -3.74
7 7.07
9 -0.16
10 -5.82
J7 12
0 7.52
1 -6.1
2 9.24
3 -4.63
4 8.62
5 5.57
6 1.56
7 5.7
8 3.4
9 -4.16
10 4.38
11 3.22
J8 12
0 7.95
1 3.72
2 7.07
3 3.8
4 7.8
5 0.88
6 4.64
7 2.98
8 8.9
9 2.94
10 4.54
11 3.03
G0 12
0 1.44
1 2.13
2 4.67
3 8.67
4 4.54
5 3.43
6 6.09
7 -4.67
8 -9.18
9 9.59
10 -6.04
11 -5.35
